************************************************************************
file with basedata            : md379_.bas
initial value random generator: 1934606270
************************************************************************
projects                      :  1
jobs (incl. supersource/sink ):  22
horizon                       :  157
RESOURCES
  - renewable                 :  2   R
  - nonrenewable              :  2   N
  - doubly constrained        :  0   D
************************************************************************
PROJECT INFORMATION:
pronr.  #jobs rel.date duedate tardcost  MPM-Time
    1     20      0       20       19       20
************************************************************************
PRECEDENCE RELATIONS:
jobnr.    #modes  #successors   successors
   1        1          3           2   3   4
   2        3          3           5   8  11
   3        3          2          14  17
   4        3          3          10  11  12
   5        3          3           6  13  20
   6        3          3           7   9  10
   7        3          3          12  14  15
   8        3          3          13  14  18
   9        3          1          15
  10        3          1          16
  11        3          3          15  20  21
  12        3          2          16  17
  13        3          1          16
  14        3          1          19
  15        3          1          19
  16        3          1          21
  17        3          1          18
  18        3          2          19  21
  19        3          1          22
  20        3          1          22
  21        3          1          22
  22        1          0        
************************************************************************
REQUESTS/DURATIONS:
jobnr. mode duration  R 1  R 2  N 1  N 2
------------------------------------------------------------------------
  1      1     0       0    0    0    0
  2      1     1       0    8    7    7
         2     8       7    0    6    5
         3    10       7    0    5    3
  3      1     2       8    0    4   10
         2     8       0    3    3   10
         3     8       2    0    2   10
  4      1     3       0    8    5   10
         2     4       0    7    5    9
         3     6       0    7    4    7
  5      1     4       0    7    7    3
         2     9       7    0    3    2
         3     9       0    2    1    2
  6      1     6       0    7    6    7
         2     9       9    0    4    4
         3    10       0    6    2    4
  7      1     1       0    3    7   10
         2     5       0    3    7    9
         3     6       0    3    7    7
  8      1     2       9    0    6    9
         2     6       8    0    5    6
         3     9       0    1    5    4
  9      1     1       4    0    6    6
         2     9       0    4    4    5
         3     9       3    0    5    5
 10      1     1       8    0    7   10
         2     1       0    5    7   10
         3     4       0    1    6    5
 11      1     8       0    6    7    6
         2     9       7    0    5    5
         3    10       3    0    4    1
 12      1     1       0    4    9    8
         2     6       0    3    6    8
         3     7       0    2    3    7
 13      1     3       7    0    5    9
         2    10       4    0    5    9
         3    10       0    7    3    8
 14      1     3       6    0    2    8
         2     7       0    4    1    4
         3    10       3    0    1    3
 15      1     6      10    0    6   10
         2     7       0    9    4    7
         3     9       8    0    4    6
 16      1     1       0   10    4    9
         2     2       7    0    3    8
         3     4       0    6    1    8
 17      1     4       0    7    7   10
         2     4      10    0    8   10
         3     5       5    0    7   10
 18      1     2       0    9    4    4
         2     2       2    0    4    4
         3     9       0    9    1    4
 19      1     1       0    9    8    2
         2     7       0    8    6    2
         3    10       0    7    5    2
 20      1     4       3    0    8    5
         2     5       0    6    8    5
         3     7       0    5    5    4
 21      1     1       0    5    5    6
         2     4       0    3    4    4
         3     5       0    1    3    3
 22      1     0       0    0    0    0
************************************************************************
RESOURCEAVAILABILITIES:
  R 1  R 2  N 1  N 2
   25   23  121  149
************************************************************************
MAXIMAL LAGS:
from  to  type  delay
    1   22   ES      0
    1    2   ES      0
    2   22   ES      0
    1    3   ES      0
    3   22   ES      0
    1    4   ES      0
    4   22   ES      0
    1    5   ES      0
    5   22   ES      0
    1    6   ES      0
    6   22   ES      0
    1    7   ES      0
    7   22   ES      0
    1    8   ES      0
    8   22   ES      0
    1    9   ES      0
    9   22   ES      0
    1   10   ES      0
   10   22   ES      0
    1   11   ES      0
   11   22   ES      0
    1   12   ES      0
   12   22   ES      0
    1   13   ES      0
   13   22   ES      0
    1   14   ES      0
   14   22   ES      0
    1   15   ES      0
   15   22   ES      0
    1   16   ES      0
   16   22   ES      0
    1   17   ES      0
   17   22   ES      0
    1   18   ES      0
   18   22   ES      0
    1   19   ES      0
   19   22   ES      0
    1   20   ES      0
   20   22   ES      0
    1   21   ES      0
   21   22   ES      0
    1   22   ES      0
    2    5   SS      0
    2    5   SE     -6
    2    5   ES      5
    2    5   EE      6
    2    8   SS     12
    2    8   SE      8
    2    8   ES      5
    2    8   EE      3
    2   11   SS      8
    2   11   SE      8
    2   11   ES     -4
    2   11   EE      7
    3   14   SS     -2
    3   14   SE     -1
    3   14   ES      7
    3   14   EE    -10
    3   17   SS    -11
    3   17   SE      7
    3   17   ES     -8
    3   17   EE     12
    4   10   SS     12
    4   10   SE     11
    4   10   ES     -5
    4   10   EE     -5
    4   11   SS     -1
    4   11   SE     -1
    4   11   ES      4
    4   11   EE      4
    4   12   SS     -1
    4   12   SE      2
    4   12   ES     -8
    4   12   EE      4
    5    6   SS      8
    5    6   SE     -5
    5    6   ES     -4
    5    6   EE      0
    5   13   SS      8
    5   13   SE     -6
    5   13   ES      8
    5   13   EE      4
    5   20   SS      7
    5   20   SE     -9
    5   20   ES      1
    5   20   EE    -10
    6    7   SS      9
    6    7   SE      7
    6    7   ES    -12
    6    7   EE     -1
    6    9   SS     -2
    6    9   SE      5
    6    9   ES      3
    6    9   EE     -1
    6   10   SS     -6
    6   10   SE    -12
    6   10   ES     10
    6   10   EE      8
    7   12   SS     -8
    7   12   SE      6
    7   12   ES      1
    7   12   EE    -10
    7   14   SS     -4
    7   14   SE     11
    7   14   ES      6
    7   14   EE      7
    7   15   SS      9
    7   15   SE     12
    7   15   ES    -11
    7   15   EE      9
    8   13   SS      7
    8   13   SE     -3
    8   13   ES    -10
    8   13   EE      1
    8   14   SS      2
    8   14   SE      6
    8   14   ES     -2
    8   14   EE      8
    8   18   SS      9
    8   18   SE     -7
    8   18   ES      8
    8   18   EE    -11
    9   15   SS     -7
    9   15   SE      2
    9   15   ES      7
    9   15   EE     12
   10   16   SS      4
   10   16   SE      7
   10   16   ES      9
   10   16   EE     11
   11   15   SS     10
   11   15   SE     -9
   11   15   ES     -4
   11   15   EE     -2
   11   20   SS     -4
   11   20   SE      5
   11   20   ES    -10
   11   20   EE    -10
   11   21   SS      5
   11   21   SE      7
   11   21   ES     -9
   11   21   EE      3
   12   16   SS      8
   12   16   SE     -7
   12   16   ES      4
   12   16   EE     -4
   12   17   SS     -2
   12   17   SE      4
   12   17   ES     -3
   12   17   EE      5
   13   16   SS     11
   13   16   SE      3
   13   16   ES     -4
   13   16   EE      6
   14   19   SS     -4
   14   19   SE    -11
   14   19   ES    -11
   14   19   EE      6
   15   19   SS     -7
   15   19   SE      1
   15   19   ES     -7
   15   19   EE      5
   16   21   SS     12
   16   21   SE      4
   21   16   SE      0
   16   21   ES      0
   16   21   EE     -1
   17   18   SS     11
   17   18   SE      5
   17   18   ES    -12
   17   18   EE      3
   18   19   SS      9
   18   19   SE     -7
   18   19   ES    -12
   18   19   EE    -11
   18   21   SS      5
   18   21   SE      8
   18   21   ES      9
   18   21   EE    -12
************************************************************************
